p edge 200 2999
e 7 1
e 8 1
e 11 1
e 31 1
e 35 1
e 44 1
e 52 1
e 57 1
e 59 1
e 63 1
e 67 1
e 72 1
e 75 1
e 77 1
e 85 1
e 91 1
e 104 1
e 113 1
e 120 1
e 126 1
e 129 1
e 141 1
e 152 1
e 158 1
e 164 1
e 169 1
e 190 1
e 194 1
e 196 1
e 6 2
e 13 2
e 17 2
e 18 2
e 28 2
e 32 2
e 40 2
e 44 2
e 45 2
e 55 2
e 58 2
e 75 2
e 77 2
e 80 2
e 81 2
e 86 2
e 89 2
e 94 2
e 99 2
e 100 2
e 104 2
e 118 2
e 120 2
e 137 2
e 155 2
e 168 2
e 175 2
e 176 2
e 189 2
e 194 2
e 4 3
e 5 3
e 17 3
e 21 3
e 30 3
e 31 3
e 34 3
e 37 3
e 39 3
e 45 3
e 49 3
e 51 3
e 62 3
e 63 3
e 69 3
e 76 3
e 78 3
e 83 3
e 87 3
e 88 3
e 90 3
e 102 3
e 103 3
e 104 3
e 111 3
e 115 3
e 134 3
e 155 3
e 160 3
e 161 3
e 165 3
e 172 3
e 182 3
e 184 3
e 189 3
e 196 3
e 24 4
e 34 4
e 39 4
e 41 4
e 43 4
e 60 4
e 71 4
e 90 4
e 93 4
e 106 4
e 108 4
e 142 4
e 148 4
e 159 4
e 176 4
e 177 4
e 187 4
e 188 4
e 189 4
e 192 4
e 194 4
e 200 4
e 6 5
e 8 5
e 13 5
e 20 5
e 25 5
e 28 5
e 41 5
e 45 5
e 48 5
e 49 5
e 53 5
e 60 5
e 62 5
e 72 5
e 73 5
e 80 5
e 82 5
e 84 5
e 85 5
e 90 5
e 94 5
e 99 5
e 117 5
e 118 5
e 119 5
e 122 5
e 128 5
e 134 5
e 147 5
e 149 5
e 151 5
e 157 5
e 162 5
e 170 5
e 183 5
e 184 5
e 190 5
e 193 5
e 197 5
e 8 6
e 13 6
e 33 6
e 38 6
e 49 6
e 56 6
e 60 6
e 69 6
e 71 6
e 74 6
e 78 6
e 80 6
e 81 6
e 82 6
e 89 6
e 94 6
e 95 6
e 97 6
e 99 6
e 102 6
e 108 6
e 110 6
e 121 6
e 139 6
e 147 6
e 154 6
e 161 6
e 165 6
e 168 6
e 178 6
e 182 6
e 186 6
e 188 6
e 198 6
e 30 7
e 31 7
e 32 7
e 35 7
e 40 7
e 49 7
e 65 7
e 67 7
e 85 7
e 86 7
e 91 7
e 94 7
e 97 7
e 101 7
e 110 7
e 117 7
e 118 7
e 119 7
e 139 7
e 149 7
e 162 7
e 165 7
e 176 7
e 178 7
e 183 7
e 185 7
e 199 7
e 13 8
e 17 8
e 27 8
e 32 8
e 33 8
e 47 8
e 49 8
e 68 8
e 71 8
e 78 8
e 89 8
e 94 8
e 101 8
e 111 8
e 112 8
e 131 8
e 145 8
e 151 8
e 163 8
e 174 8
e 175 8
e 190 8
e 12 9
e 14 9
e 15 9
e 21 9
e 25 9
e 27 9
e 39 9
e 41 9
e 42 9
e 45 9
e 48 9
e 49 9
e 55 9
e 60 9
e 62 9
e 65 9
e 66 9
e 81 9
e 82 9
e 88 9
e 91 9
e 98 9
e 111 9
e 124 9
e 135 9
e 146 9
e 169 9
e 174 9
e 175 9
e 177 9
e 182 9
e 190 9
e 192 9
e 196 9
e 12 10
e 14 10
e 19 10
e 28 10
e 29 10
e 32 10
e 40 10
e 46 10
e 52 10
e 53 10
e 60 10
e 63 10
e 67 10
e 73 10
e 79 10
e 81 10
e 95 10
e 98 10
e 109 10
e 112 10
e 119 10
e 126 10
e 143 10
e 149 10
e 153 10
e 155 10
e 171 10
e 173 10
e 180 10
e 186 10
e 192 10
e 199 10
e 27 11
e 34 11
e 40 11
e 44 11
e 46 11
e 71 11
e 72 11
e 80 11
e 84 11
e 85 11
e 92 11
e 107 11
e 123 11
e 124 11
e 128 11
e 129 11
e 135 11
e 137 11
e 143 11
e 145 11
e 150 11
e 153 11
e 170 11
e 174 11
e 183 11
e 187 11
e 200 11
e 20 12
e 21 12
e 23 12
e 48 12
e 56 12
e 66 12
e 69 12
e 82 12
e 97 12
e 113 12
e 130 12
e 135 12
e 139 12
e 155 12
e 160 12
e 162 12
e 171 12
e 180 12
e 187 12
e 198 12
e 19 13
e 22 13
e 45 13
e 46 13
e 51 13
e 54 13
e 65 13
e 70 13
e 72 13
e 76 13
e 84 13
e 93 13
e 94 13
e 98 13
e 104 13
e 106 13
e 120 13
e 124 13
e 133 13
e 142 13
e 143 13
e 144 13
e 147 13
e 149 13
e 150 13
e 152 13
e 174 13
e 190 13
e 197 13
e 18 14
e 20 14
e 27 14
e 28 14
e 31 14
e 32 14
e 39 14
e 51 14
e 54 14
e 55 14
e 64 14
e 69 14
e 70 14
e 83 14
e 87 14
e 94 14
e 101 14
e 105 14
e 114 14
e 126 14
e 143 14
e 154 14
e 159 14
e 161 14
e 163 14
e 183 14
e 184 14
e 185 14
e 190 14
e 193 14
e 26 15
e 29 15
e 38 15
e 49 15
e 58 15
e 77 15
e 82 15
e 99 15
e 100 15
e 105 15
e 111 15
e 116 15
e 118 15
e 121 15
e 122 15
e 125 15
e 127 15
e 129 15
e 133 15
e 139 15
e 157 15
e 159 15
e 160 15
e 174 15
e 180 15
e 194 15
e 198 15
e 21 16
e 22 16
e 34 16
e 50 16
e 53 16
e 60 16
e 69 16
e 81 16
e 82 16
e 83 16
e 84 16
e 86 16
e 99 16
e 109 16
e 113 16
e 132 16
e 137 16
e 152 16
e 156 16
e 186 16
e 190 16
e 193 16
e 194 16
e 199 16
e 20 17
e 22 17
e 37 17
e 41 17
e 48 17
e 49 17
e 51 17
e 53 17
e 55 17
e 71 17
e 84 17
e 86 17
e 92 17
e 93 17
e 99 17
e 100 17
e 135 17
e 141 17
e 150 17
e 154 17
e 174 17
e 177 17
e 178 17
e 179 17
e 183 17
e 186 17
e 188 17
e 198 17
e 24 18
e 33 18
e 35 18
e 37 18
e 42 18
e 49 18
e 56 18
e 69 18
e 78 18
e 89 18
e 91 18
e 95 18
e 97 18
e 106 18
e 114 18
e 115 18
e 118 18
e 133 18
e 137 18
e 145 18
e 146 18
e 163 18
e 174 18
e 180 18
e 189 18
e 22 19
e 44 19
e 52 19
e 58 19
e 65 19
e 74 19
e 82 19
e 93 19
e 98 19
e 99 19
e 104 19
e 108 19
e 114 19
e 120 19
e 128 19
e 129 19
e 138 19
e 144 19
e 152 19
e 156 19
e 162 19
e 168 19
e 171 19
e 172 19
e 173 19
e 175 19
e 187 19
e 195 19
e 23 20
e 37 20
e 49 20
e 61 20
e 62 20
e 67 20
e 71 20
e 86 20
e 93 20
e 126 20
e 130 20
e 131 20
e 136 20
e 154 20
e 157 20
e 166 20
e 170 20
e 177 20
e 178 20
e 184 20
e 31 21
e 43 21
e 54 21
e 58 21
e 73 21
e 74 21
e 84 21
e 85 21
e 91 21
e 93 21
e 114 21
e 118 21
e 130 21
e 148 21
e 151 21
e 170 21
e 178 21
e 200 21
e 47 22
e 54 22
e 66 22
e 67 22
e 68 22
e 69 22
e 74 22
e 80 22
e 94 22
e 105 22
e 109 22
e 124 22
e 126 22
e 130 22
e 133 22
e 148 22
e 149 22
e 161 22
e 170 22
e 173 22
e 177 22
e 180 22
e 181 22
e 185 22
e 192 22
e 196 22
e 197 22
e 28 23
e 30 23
e 32 23
e 36 23
e 39 23
e 40 23
e 47 23
e 50 23
e 52 23
e 63 23
e 67 23
e 69 23
e 75 23
e 83 23
e 87 23
e 89 23
e 95 23
e 100 23
e 101 23
e 111 23
e 123 23
e 126 23
e 131 23
e 155 23
e 161 23
e 170 23
e 175 23
e 185 23
e 190 23
e 192 23
e 29 24
e 40 24
e 50 24
e 52 24
e 55 24
e 59 24
e 62 24
e 80 24
e 81 24
e 89 24
e 90 24
e 91 24
e 92 24
e 93 24
e 111 24
e 116 24
e 119 24
e 127 24
e 131 24
e 132 24
e 145 24
e 154 24
e 163 24
e 165 24
e 172 24
e 177 24
e 186 24
e 189 24
e 30 25
e 33 25
e 41 25
e 42 25
e 49 25
e 60 25
e 66 25
e 71 25
e 73 25
e 75 25
e 88 25
e 90 25
e 102 25
e 106 25
e 108 25
e 115 25
e 128 25
e 138 25
e 149 25
e 167 25
e 168 25
e 173 25
e 174 25
e 183 25
e 185 25
e 187 25
e 190 25
e 193 25
e 194 25
e 29 26
e 34 26
e 35 26
e 38 26
e 40 26
e 41 26
e 43 26
e 51 26
e 55 26
e 63 26
e 96 26
e 97 26
e 99 26
e 115 26
e 120 26
e 144 26
e 146 26
e 150 26
e 160 26
e 161 26
e 170 26
e 172 26
e 178 26
e 184 26
e 192 26
e 197 26
e 199 26
e 54 27
e 61 27
e 75 27
e 81 27
e 83 27
e 99 27
e 100 27
e 106 27
e 110 27
e 127 27
e 128 27
e 135 27
e 138 27
e 144 27
e 150 27
e 153 27
e 157 27
e 158 27
e 159 27
e 165 27
e 170 27
e 178 27
e 192 27
e 30 28
e 31 28
e 37 28
e 47 28
e 72 28
e 81 28
e 82 28
e 95 28
e 114 28
e 116 28
e 118 28
e 120 28
e 128 28
e 129 28
e 146 28
e 154 28
e 164 28
e 172 28
e 183 28
e 187 28
e 200 28
e 32 29
e 35 29
e 40 29
e 42 29
e 43 29
e 47 29
e 51 29
e 54 29
e 71 29
e 78 29
e 97 29
e 101 29
e 105 29
e 108 29
e 122 29
e 163 29
e 164 29
e 173 29
e 176 29
e 180 29
e 186 29
e 191 29
e 35 30
e 44 30
e 58 30
e 64 30
e 71 30
e 72 30
e 75 30
e 76 30
e 81 30
e 82 30
e 85 30
e 96 30
e 106 30
e 126 30
e 132 30
e 144 30
e 147 30
e 149 30
e 167 30
e 168 30
e 180 30
e 185 30
e 188 30
e 189 30
e 190 30
e 197 30
e 47 31
e 68 31
e 81 31
e 89 31
e 100 31
e 104 31
e 106 31
e 113 31
e 122 31
e 126 31
e 136 31
e 140 31
e 145 31
e 149 31
e 150 31
e 154 31
e 159 31
e 165 31
e 172 31
e 178 31
e 181 31
e 187 31
e 33 32
e 40 32
e 41 32
e 50 32
e 73 32
e 92 32
e 97 32
e 103 32
e 108 32
e 111 32
e 132 32
e 134 32
e 139 32
e 141 32
e 148 32
e 154 32
e 161 32
e 165 32
e 168 32
e 174 32
e 176 32
e 178 32
e 186 32
e 187 32
e 196 32
e 199 32
e 54 33
e 57 33
e 60 33
e 78 33
e 80 33
e 90 33
e 94 33
e 95 33
e 97 33
e 105 33
e 110 33
e 116 33
e 123 33
e 125 33
e 126 33
e 134 33
e 144 33
e 147 33
e 149 33
e 153 33
e 162 33
e 168 33
e 183 33
e 187 33
e 198 33
e 39 34
e 41 34
e 43 34
e 56 34
e 57 34
e 72 34
e 73 34
e 81 34
e 82 34
e 93 34
e 98 34
e 105 34
e 108 34
e 113 34
e 120 34
e 134 34
e 135 34
e 137 34
e 145 34
e 152 34
e 153 34
e 170 34
e 179 34
e 185 34
e 188 34
e 192 34
e 194 34
e 198 34
e 41 35
e 44 35
e 45 35
e 46 35
e 67 35
e 73 35
e 76 35
e 81 35
e 85 35
e 86 35
e 109 35
e 113 35
e 114 35
e 120 35
e 132 35
e 140 35
e 142 35
e 148 35
e 160 35
e 162 35
e 168 35
e 172 35
e 183 35
e 186 35
e 195 35
e 200 35
e 39 36
e 40 36
e 46 36
e 67 36
e 75 36
e 79 36
e 80 36
e 82 36
e 87 36
e 94 36
e 96 36
e 100 36
e 102 36
e 113 36
e 116 36
e 148 36
e 157 36
e 165 36
e 170 36
e 197 36
e 38 37
e 48 37
e 52 37
e 53 37
e 62 37
e 63 37
e 69 37
e 76 37
e 84 37
e 91 37
e 108 37
e 109 37
e 113 37
e 118 37
e 134 37
e 141 37
e 142 37
e 148 37
e 149 37
e 155 37
e 165 37
e 167 37
e 169 37
e 172 37
e 46 38
e 50 38
e 61 38
e 63 38
e 67 38
e 76 38
e 79 38
e 86 38
e 89 38
e 95 38
e 98 38
e 101 38
e 103 38
e 108 38
e 109 38
e 137 38
e 138 38
e 143 38
e 152 38
e 158 38
e 159 38
e 167 38
e 168 38
e 172 38
e 176 38
e 178 38
e 185 38
e 187 38
e 188 38
e 190 38
e 194 38
e 195 38
e 41 39
e 43 39
e 46 39
e 53 39
e 55 39
e 73 39
e 74 39
e 82 39
e 84 39
e 93 39
e 96 39
e 106 39
e 118 39
e 120 39
e 128 39
e 131 39
e 133 39
e 134 39
e 137 39
e 139 39
e 141 39
e 143 39
e 145 39
e 147 39
e 154 39
e 155 39
e 163 39
e 166 39
e 180 39
e 188 39
e 195 39
e 196 39
e 55 40
e 69 40
e 81 40
e 98 40
e 104 40
e 112 40
e 120 40
e 129 40
e 138 40
e 141 40
e 153 40
e 155 40
e 157 40
e 161 40
e 167 40
e 168 40
e 180 40
e 198 40
e 199 40
e 45 41
e 49 41
e 57 41
e 62 41
e 70 41
e 91 41
e 97 41
e 99 41
e 111 41
e 115 41
e 138 41
e 139 41
e 147 41
e 150 41
e 151 41
e 157 41
e 158 41
e 164 41
e 166 41
e 188 41
e 43 42
e 55 42
e 57 42
e 58 42
e 59 42
e 61 42
e 68 42
e 77 42
e 79 42
e 85 42
e 99 42
e 104 42
e 116 42
e 127 42
e 137 42
e 147 42
e 155 42
e 162 42
e 164 42
e 168 42
e 172 42
e 184 42
e 187 42
e 189 42
e 191 42
e 45 43
e 52 43
e 72 43
e 74 43
e 78 43
e 95 43
e 96 43
e 100 43
e 102 43
e 104 43
e 121 43
e 129 43
e 131 43
e 132 43
e 136 43
e 140 43
e 141 43
e 142 43
e 166 43
e 168 43
e 173 43
e 176 43
e 178 43
e 182 43
e 185 43
e 188 43
e 198 43
e 63 44
e 69 44
e 71 44
e 73 44
e 76 44
e 79 44
e 99 44
e 107 44
e 112 44
e 115 44
e 119 44
e 123 44
e 124 44
e 125 44
e 135 44
e 147 44
e 151 44
e 156 44
e 157 44
e 162 44
e 163 44
e 164 44
e 173 44
e 179 44
e 188 44
e 190 44
e 196 44
e 51 45
e 54 45
e 61 45
e 86 45
e 91 45
e 96 45
e 111 45
e 121 45
e 127 45
e 128 45
e 130 45
e 132 45
e 133 45
e 150 45
e 155 45
e 160 45
e 170 45
e 171 45
e 172 45
e 181 45
e 184 45
e 187 45
e 192 45
e 52 46
e 55 46
e 59 46
e 65 46
e 68 46
e 74 46
e 76 46
e 77 46
e 80 46
e 97 46
e 98 46
e 100 46
e 102 46
e 120 46
e 125 46
e 129 46
e 132 46
e 136 46
e 147 46
e 150 46
e 155 46
e 158 46
e 161 46
e 166 46
e 168 46
e 179 46
e 184 46
e 189 46
e 193 46
e 197 46
e 200 46
e 64 47
e 67 47
e 73 47
e 100 47
e 124 47
e 133 47
e 146 47
e 148 47
e 157 47
e 162 47
e 165 47
e 167 47
e 178 47
e 180 47
e 200 47
e 50 48
e 52 48
e 66 48
e 75 48
e 80 48
e 82 48
e 83 48
e 84 48
e 88 48
e 91 48
e 93 48
e 101 48
e 105 48
e 109 48
e 110 48
e 115 48
e 118 48
e 119 48
e 120 48
e 125 48
e 130 48
e 133 48
e 150 48
e 155 48
e 161 48
e 165 48
e 172 48
e 179 48
e 188 48
e 190 48
e 192 48
e 200 48
e 50 49
e 51 49
e 64 49
e 66 49
e 69 49
e 71 49
e 76 49
e 91 49
e 99 49
e 101 49
e 102 49
e 103 49
e 111 49
e 113 49
e 115 49
e 119 49
e 122 49
e 132 49
e 134 49
e 145 49
e 148 49
e 153 49
e 158 49
e 159 49
e 162 49
e 167 49
e 186 49
e 189 49
e 192 49
e 198 49
e 75 50
e 76 50
e 78 50
e 83 50
e 84 50
e 104 50
e 111 50
e 121 50
e 137 50
e 138 50
e 147 50
e 153 50
e 162 50
e 171 50
e 177 50
e 179 50
e 190 50
e 191 50
e 198 50
e 55 51
e 57 51
e 59 51
e 64 51
e 68 51
e 76 51
e 89 51
e 96 51
e 98 51
e 99 51
e 105 51
e 110 51
e 119 51
e 121 51
e 128 51
e 140 51
e 144 51
e 157 51
e 166 51
e 169 51
e 170 51
e 173 51
e 176 51
e 193 51
e 55 52
e 66 52
e 85 52
e 86 52
e 88 52
e 89 52
e 90 52
e 98 52
e 100 52
e 102 52
e 115 52
e 119 52
e 142 52
e 155 52
e 157 52
e 159 52
e 171 52
e 183 52
e 185 52
e 186 52
e 191 52
e 196 52
e 198 52
e 56 53
e 59 53
e 65 53
e 84 53
e 103 53
e 106 53
e 109 53
e 111 53
e 116 53
e 119 53
e 127 53
e 137 53
e 140 53
e 155 53
e 158 53
e 170 53
e 181 53
e 185 53
e 199 53
e 200 53
e 58 54
e 72 54
e 80 54
e 96 54
e 99 54
e 109 54
e 111 54
e 133 54
e 167 54
e 182 54
e 189 54
e 193 54
e 197 54
e 200 54
e 66 55
e 68 55
e 69 55
e 75 55
e 76 55
e 100 55
e 105 55
e 106 55
e 110 55
e 112 55
e 115 55
e 133 55
e 138 55
e 140 55
e 144 55
e 145 55
e 147 55
e 161 55
e 168 55
e 169 55
e 191 55
e 193 55
e 76 56
e 96 56
e 98 56
e 99 56
e 104 56
e 107 56
e 113 56
e 118 56
e 125 56
e 144 56
e 147 56
e 161 56
e 165 56
e 167 56
e 169 56
e 172 56
e 180 56
e 184 56
e 63 57
e 66 57
e 67 57
e 83 57
e 95 57
e 107 57
e 110 57
e 114 57
e 118 57
e 127 57
e 129 57
e 130 57
e 132 57
e 142 57
e 144 57
e 145 57
e 146 57
e 148 57
e 149 57
e 150 57
e 154 57
e 160 57
e 163 57
e 167 57
e 171 57
e 194 57
e 70 58
e 71 58
e 107 58
e 117 58
e 118 58
e 124 58
e 128 58
e 131 58
e 134 58
e 135 58
e 138 58
e 140 58
e 148 58
e 151 58
e 154 58
e 162 58
e 165 58
e 171 58
e 174 58
e 176 58
e 180 58
e 197 58
e 200 58
e 65 59
e 66 59
e 71 59
e 78 59
e 82 59
e 96 59
e 110 59
e 113 59
e 121 59
e 124 59
e 125 59
e 129 59
e 136 59
e 147 59
e 149 59
e 152 59
e 169 59
e 180 59
e 191 59
e 63 60
e 66 60
e 78 60
e 80 60
e 84 60
e 89 60
e 90 60
e 105 60
e 116 60
e 124 60
e 134 60
e 135 60
e 140 60
e 151 60
e 153 60
e 165 60
e 192 60
e 197 60
e 199 60
e 200 60
e 78 61
e 88 61
e 90 61
e 96 61
e 103 61
e 108 61
e 111 61
e 121 61
e 122 61
e 132 61
e 133 61
e 141 61
e 149 61
e 163 61
e 170 61
e 175 61
e 179 61
e 181 61
e 187 61
e 195 61
e 63 62
e 67 62
e 71 62
e 76 62
e 81 62
e 82 62
e 83 62
e 97 62
e 117 62
e 124 62
e 129 62
e 136 62
e 140 62
e 141 62
e 147 62
e 152 62
e 153 62
e 155 62
e 163 62
e 168 62
e 171 62
e 176 62
e 177 62
e 179 62
e 188 62
e 64 63
e 68 63
e 80 63
e 82 63
e 83 63
e 86 63
e 92 63
e 95 63
e 96 63
e 104 63
e 112 63
e 116 63
e 125 63
e 144 63
e 148 63
e 150 63
e 165 63
e 167 63
e 169 63
e 180 63
e 189 63
e 191 63
e 192 63
e 199 63
e 66 64
e 67 64
e 82 64
e 84 64
e 97 64
e 102 64
e 114 64
e 122 64
e 127 64
e 128 64
e 133 64
e 140 64
e 147 64
e 154 64
e 168 64
e 183 64
e 196 64
e 199 64
e 69 65
e 80 65
e 83 65
e 87 65
e 88 65
e 89 65
e 92 65
e 101 65
e 110 65
e 113 65
e 116 65
e 117 65
e 126 65
e 138 65
e 139 65
e 143 65
e 146 65
e 148 65
e 149 65
e 150 65
e 167 65
e 185 65
e 187 65
e 190 65
e 191 65
e 76 66
e 82 66
e 85 66
e 92 66
e 111 66
e 126 66
e 127 66
e 131 66
e 133 66
e 140 66
e 141 66
e 142 66
e 144 66
e 148 66
e 152 66
e 156 66
e 162 66
e 168 66
e 171 66
e 174 66
e 180 66
e 195 66
e 196 66
e 200 66
e 74 67
e 75 67
e 82 67
e 88 67
e 100 67
e 111 67
e 114 67
e 118 67
e 126 67
e 132 67
e 134 67
e 136 67
e 156 67
e 158 67
e 159 67
e 173 67
e 176 67
e 178 67
e 181 67
e 75 68
e 97 68
e 101 68
e 102 68
e 112 68
e 137 68
e 151 68
e 155 68
e 169 68
e 174 68
e 176 68
e 178 68
e 187 68
e 191 68
e 81 69
e 83 69
e 89 69
e 90 69
e 94 69
e 130 69
e 137 69
e 138 69
e 141 69
e 142 69
e 151 69
e 156 69
e 160 69
e 178 69
e 182 69
e 183 69
e 187 69
e 199 69
e 74 70
e 81 70
e 87 70
e 100 70
e 115 70
e 140 70
e 145 70
e 146 70
e 156 70
e 163 70
e 166 70
e 168 70
e 171 70
e 179 70
e 191 70
e 192 70
e 74 71
e 75 71
e 76 71
e 90 71
e 97 71
e 109 71
e 113 71
e 114 71
e 116 71
e 118 71
e 119 71
e 121 71
e 128 71
e 133 71
e 134 71
e 136 71
e 140 71
e 144 71
e 147 71
e 152 71
e 155 71
e 167 71
e 174 71
e 178 71
e 179 71
e 184 71
e 200 71
e 75 72
e 79 72
e 81 72
e 85 72
e 92 72
e 96 72
e 97 72
e 118 72
e 124 72
e 127 72
e 131 72
e 133 72
e 139 72
e 142 72
e 144 72
e 149 72
e 156 72
e 168 72
e 180 72
e 182 72
e 184 72
e 187 72
e 75 73
e 76 73
e 80 73
e 94 73
e 104 73
e 106 73
e 109 73
e 110 73
e 111 73
e 122 73
e 125 73
e 128 73
e 129 73
e 137 73
e 146 73
e 148 73
e 149 73
e 155 73
e 159 73
e 162 73
e 174 73
e 199 73
e 97 74
e 111 74
e 119 74
e 125 74
e 131 74
e 135 74
e 137 74
e 140 74
e 141 74
e 144 74
e 149 74
e 159 74
e 160 74
e 161 74
e 163 74
e 165 74
e 166 74
e 174 74
e 179 74
e 184 74
e 194 74
e 81 75
e 83 75
e 93 75
e 95 75
e 96 75
e 112 75
e 113 75
e 114 75
e 121 75
e 128 75
e 130 75
e 135 75
e 141 75
e 145 75
e 151 75
e 157 75
e 158 75
e 161 75
e 166 75
e 167 75
e 168 75
e 176 75
e 183 75
e 187 75
e 193 75
e 200 75
e 89 76
e 97 76
e 102 76
e 110 76
e 113 76
e 115 76
e 121 76
e 127 76
e 131 76
e 151 76
e 162 76
e 166 76
e 171 76
e 177 76
e 185 76
e 189 76
e 192 76
e 193 76
e 82 77
e 90 77
e 94 77
e 97 77
e 104 77
e 109 77
e 123 77
e 140 77
e 154 77
e 155 77
e 162 77
e 163 77
e 165 77
e 167 77
e 168 77
e 181 77
e 185 77
e 196 77
e 86 78
e 94 78
e 108 78
e 110 78
e 118 78
e 119 78
e 122 78
e 136 78
e 140 78
e 141 78
e 142 78
e 149 78
e 152 78
e 158 78
e 159 78
e 167 78
e 178 78
e 182 78
e 186 78
e 188 78
e 196 78
e 197 78
e 82 79
e 88 79
e 91 79
e 94 79
e 98 79
e 106 79
e 118 79
e 129 79
e 132 79
e 133 79
e 144 79
e 148 79
e 162 79
e 171 79
e 173 79
e 180 79
e 182 79
e 184 79
e 189 79
e 194 79
e 200 79
e 109 80
e 113 80
e 115 80
e 124 80
e 125 80
e 130 80
e 134 80
e 136 80
e 138 80
e 144 80
e 153 80
e 154 80
e 157 80
e 165 80
e 182 80
e 183 80
e 190 80
e 192 80
e 193 80
e 88 81
e 94 81
e 102 81
e 103 81
e 106 81
e 107 81
e 108 81
e 113 81
e 124 81
e 127 81
e 130 81
e 134 81
e 151 81
e 172 81
e 175 81
e 177 81
e 181 81
e 186 81
e 188 81
e 195 81
e 96 82
e 101 82
e 114 82
e 125 82
e 130 82
e 133 82
e 145 82
e 147 82
e 149 82
e 161 82
e 162 82
e 166 82
e 180 82
e 186 82
e 187 82
e 189 82
e 196 82
e 87 83
e 97 83
e 108 83
e 109 83
e 111 83
e 114 83
e 115 83
e 116 83
e 125 83
e 130 83
e 140 83
e 146 83
e 173 83
e 174 83
e 175 83
e 176 83
e 178 83
e 184 83
e 194 83
e 103 84
e 113 84
e 114 84
e 115 84
e 127 84
e 130 84
e 133 84
e 135 84
e 147 84
e 148 84
e 150 84
e 154 84
e 173 84
e 185 84
e 187 84
e 91 85
e 92 85
e 96 85
e 99 85
e 100 85
e 101 85
e 124 85
e 138 85
e 144 85
e 148 85
e 155 85
e 164 85
e 171 85
e 181 85
e 188 85
e 190 85
e 200 85
e 87 86
e 96 86
e 110 86
e 124 86
e 134 86
e 137 86
e 149 86
e 157 86
e 163 86
e 168 86
e 178 86
e 185 86
e 187 86
e 199 86
e 97 87
e 98 87
e 104 87
e 107 87
e 120 87
e 133 87
e 138 87
e 144 87
e 148 87
e 155 87
e 163 87
e 166 87
e 178 87
e 100 88
e 104 88
e 105 88
e 106 88
e 107 88
e 121 88
e 131 88
e 135 88
e 138 88
e 142 88
e 147 88
e 148 88
e 150 88
e 151 88
e 161 88
e 163 88
e 165 88
e 166 88
e 168 88
e 172 88
e 190 88
e 99 89
e 103 89
e 110 89
e 116 89
e 130 89
e 142 89
e 145 89
e 147 89
e 155 89
e 157 89
e 165 89
e 172 89
e 194 89
e 108 90
e 111 90
e 123 90
e 128 90
e 131 90
e 135 90
e 137 90
e 146 90
e 150 90
e 156 90
e 160 90
e 164 90
e 169 90
e 175 90
e 176 90
e 184 90
e 192 90
e 99 91
e 106 91
e 111 91
e 125 91
e 127 91
e 130 91
e 134 91
e 136 91
e 138 91
e 147 91
e 180 91
e 184 91
e 193 91
e 195 91
e 196 91
e 94 92
e 102 92
e 113 92
e 114 92
e 121 92
e 127 92
e 140 92
e 143 92
e 153 92
e 154 92
e 172 92
e 178 92
e 191 92
e 197 92
e 199 92
e 94 93
e 108 93
e 109 93
e 121 93
e 133 93
e 134 93
e 135 93
e 144 93
e 166 93
e 167 93
e 173 93
e 176 93
e 182 93
e 186 93
e 189 93
e 192 93
e 193 93
e 96 94
e 97 94
e 101 94
e 103 94
e 108 94
e 113 94
e 116 94
e 124 94
e 125 94
e 128 94
e 146 94
e 161 94
e 164 94
e 166 94
e 170 94
e 177 94
e 185 94
e 191 94
e 192 94
e 97 95
e 114 95
e 116 95
e 127 95
e 128 95
e 136 95
e 146 95
e 150 95
e 159 95
e 162 95
e 163 95
e 164 95
e 168 95
e 169 95
e 175 95
e 181 95
e 183 95
e 190 95
e 193 95
e 198 95
e 102 96
e 109 96
e 129 96
e 134 96
e 137 96
e 151 96
e 161 96
e 166 96
e 169 96
e 170 96
e 172 96
e 179 96
e 111 97
e 112 97
e 115 97
e 126 97
e 131 97
e 132 97
e 133 97
e 139 97
e 141 97
e 166 97
e 168 97
e 170 97
e 184 97
e 188 97
e 190 97
e 192 97
e 200 97
e 99 98
e 109 98
e 111 98
e 141 98
e 144 98
e 154 98
e 159 98
e 166 98
e 168 98
e 173 98
e 175 98
e 178 98
e 180 98
e 182 98
e 193 98
e 195 98
e 101 99
e 103 99
e 107 99
e 112 99
e 126 99
e 135 99
e 164 99
e 167 99
e 175 99
e 180 99
e 181 99
e 184 99
e 186 99
e 193 99
e 106 100
e 124 100
e 139 100
e 144 100
e 152 100
e 153 100
e 156 100
e 170 100
e 174 100
e 177 100
e 178 100
e 180 100
e 183 100
e 184 100
e 192 100
e 194 100
e 105 101
e 107 101
e 109 101
e 110 101
e 115 101
e 125 101
e 129 101
e 139 101
e 144 101
e 152 101
e 191 101
e 106 102
e 107 102
e 112 102
e 113 102
e 119 102
e 121 102
e 123 102
e 129 102
e 131 102
e 146 102
e 152 102
e 162 102
e 173 102
e 185 102
e 192 102
e 196 102
e 114 103
e 121 103
e 125 103
e 130 103
e 136 103
e 150 103
e 166 103
e 174 103
e 180 103
e 184 103
e 187 103
e 194 103
e 105 104
e 106 104
e 110 104
e 111 104
e 127 104
e 129 104
e 133 104
e 155 104
e 187 104
e 192 104
e 199 104
e 107 105
e 116 105
e 129 105
e 135 105
e 138 105
e 142 105
e 155 105
e 156 105
e 158 105
e 165 105
e 179 105
e 180 105
e 184 105
e 192 105
e 110 106
e 115 106
e 117 106
e 123 106
e 124 106
e 125 106
e 127 106
e 137 106
e 142 106
e 147 106
e 155 106
e 159 106
e 163 106
e 165 106
e 177 106
e 186 106
e 197 106
e 199 106
e 108 107
e 126 107
e 135 107
e 143 107
e 151 107
e 160 107
e 163 107
e 164 107
e 169 107
e 175 107
e 185 107
e 189 107
e 194 107
e 116 108
e 121 108
e 123 108
e 124 108
e 140 108
e 144 108
e 163 108
e 178 108
e 187 108
e 196 108
e 112 109
e 124 109
e 126 109
e 128 109
e 131 109
e 139 109
e 141 109
e 147 109
e 151 109
e 155 109
e 165 109
e 169 109
e 174 109
e 181 109
e 182 109
e 191 109
e 192 109
e 193 109
e 115 110
e 127 110
e 132 110
e 141 110
e 150 110
e 154 110
e 168 110
e 177 110
e 178 110
e 179 110
e 185 110
e 191 110
e 193 110
e 112 111
e 120 111
e 122 111
e 126 111
e 127 111
e 129 111
e 133 111
e 145 111
e 148 111
e 154 111
e 158 111
e 161 111
e 164 111
e 189 111
e 200 111
e 121 112
e 125 112
e 126 112
e 127 112
e 129 112
e 133 112
e 147 112
e 151 112
e 164 112
e 173 112
e 174 112
e 114 113
e 128 113
e 133 113
e 139 113
e 140 113
e 161 113
e 163 113
e 164 113
e 196 113
e 199 113
e 132 114
e 133 114
e 138 114
e 153 114
e 161 114
e 162 114
e 165 114
e 166 114
e 174 114
e 181 114
e 189 114
e 191 114
e 194 114
e 197 114
e 198 114
e 117 115
e 121 115
e 123 115
e 130 115
e 131 115
e 140 115
e 146 115
e 156 115
e 162 115
e 173 115
e 180 115
e 184 115
e 187 115
e 188 115
e 132 116
e 143 116
e 150 116
e 152 116
e 153 116
e 157 116
e 159 116
e 163 116
e 169 116
e 170 116
e 171 116
e 178 116
e 191 116
e 120 117
e 129 117
e 131 117
e 133 117
e 135 117
e 143 117
e 151 117
e 154 117
e 158 117
e 161 117
e 162 117
e 165 117
e 166 117
e 169 117
e 171 117
e 177 117
e 188 117
e 192 117
e 198 117
e 129 118
e 133 118
e 139 118
e 144 118
e 145 118
e 147 118
e 149 118
e 150 118
e 162 118
e 176 118
e 180 118
e 186 118
e 187 118
e 124 119
e 130 119
e 132 119
e 140 119
e 141 119
e 150 119
e 162 119
e 165 119
e 172 119
e 178 119
e 191 119
e 193 119
e 197 119
e 121 120
e 127 120
e 129 120
e 143 120
e 151 120
e 155 120
e 186 120
e 126 121
e 132 121
e 134 121
e 135 121
e 138 121
e 139 121
e 145 121
e 148 121
e 151 121
e 154 121
e 156 121
e 157 121
e 167 121
e 175 121
e 180 121
e 183 121
e 186 121
e 190 121
e 196 121
e 200 121
e 132 122
e 138 122
e 155 122
e 162 122
e 163 122
e 176 122
e 190 122
e 193 122
e 125 123
e 128 123
e 136 123
e 138 123
e 139 123
e 145 123
e 153 123
e 158 123
e 163 123
e 165 123
e 185 123
e 191 123
e 195 123
e 199 123
e 125 124
e 129 124
e 132 124
e 133 124
e 135 124
e 145 124
e 155 124
e 159 124
e 162 124
e 167 124
e 169 124
e 174 124
e 192 124
e 199 124
e 141 125
e 143 125
e 147 125
e 150 125
e 155 125
e 162 125
e 163 125
e 177 125
e 179 125
e 183 125
e 184 125
e 185 125
e 186 125
e 199 125
e 200 125
e 141 126
e 143 126
e 149 126
e 162 126
e 177 126
e 133 127
e 140 127
e 142 127
e 154 127
e 156 127
e 163 127
e 167 127
e 185 127
e 186 127
e 189 127
e 197 127
e 198 127
e 137 128
e 140 128
e 149 128
e 155 128
e 176 128
e 178 128
e 179 128
e 184 128
e 191 128
e 198 128
e 146 129
e 155 129
e 156 129
e 170 129
e 174 129
e 181 129
e 183 129
e 195 129
e 196 129
e 133 130
e 142 130
e 144 130
e 163 130
e 182 130
e 137 131
e 146 131
e 152 131
e 160 131
e 172 131
e 181 131
e 182 131
e 190 131
e 133 132
e 134 132
e 136 132
e 149 132
e 157 132
e 163 132
e 170 132
e 181 132
e 199 132
e 142 133
e 151 133
e 162 133
e 167 133
e 184 133
e 196 133
e 199 133
e 136 134
e 138 134
e 144 134
e 156 134
e 170 134
e 183 134
e 151 135
e 160 135
e 164 135
e 168 135
e 176 135
e 177 135
e 186 135
e 188 135
e 190 135
e 192 135
e 193 135
e 199 135
e 200 135
e 148 136
e 149 136
e 163 136
e 176 136
e 183 136
e 186 136
e 150 137
e 151 137
e 155 137
e 156 137
e 170 137
e 171 137
e 140 138
e 153 138
e 155 138
e 164 138
e 187 138
e 196 138
e 146 139
e 158 139
e 163 139
e 168 139
e 169 139
e 171 139
e 179 139
e 182 139
e 191 139
e 195 139
e 146 140
e 149 140
e 158 140
e 167 140
e 177 140
e 184 140
e 185 140
e 192 140
e 193 140
e 198 140
e 200 140
e 142 141
e 149 141
e 158 141
e 159 141
e 168 141
e 172 141
e 174 141
e 176 141
e 192 141
e 194 141
e 199 141
e 153 142
e 159 142
e 167 142
e 168 142
e 172 142
e 179 142
e 186 142
e 199 142
e 152 143
e 172 143
e 182 143
e 183 143
e 189 143
e 200 143
e 152 144
e 153 144
e 154 144
e 155 144
e 156 144
e 157 144
e 179 144
e 182 144
e 186 144
e 187 144
e 146 145
e 155 145
e 156 145
e 159 145
e 162 145
e 167 145
e 172 145
e 178 145
e 182 145
e 150 146
e 152 146
e 153 146
e 161 146
e 164 146
e 169 146
e 174 146
e 182 146
e 183 146
e 184 146
e 187 146
e 189 146
e 194 146
e 148 147
e 168 147
e 169 147
e 172 147
e 174 147
e 179 147
e 184 147
e 187 147
e 191 147
e 192 147
e 193 147
e 154 148
e 157 148
e 166 148
e 176 148
e 188 148
e 193 148
e 154 149
e 158 149
e 163 149
e 164 149
e 165 149
e 175 149
e 177 149
e 192 149
e 200 149
e 153 150
e 163 150
e 164 150
e 173 150
e 180 150
e 188 150
e 152 151
e 158 151
e 168 151
e 170 151
e 190 151
e 193 151
e 200 151
e 165 152
e 166 152
e 173 152
e 176 152
e 183 152
e 185 152
e 187 152
e 190 152
e 199 152
e 162 153
e 165 153
e 166 153
e 185 153
e 199 153
e 155 154
e 163 154
e 167 154
e 173 154
e 174 154
e 175 154
e 189 154
e 191 154
e 195 154
e 200 154
e 170 155
e 182 155
e 184 155
e 187 155
e 198 155
e 158 156
e 159 156
e 165 156
e 171 156
e 177 156
e 188 156
e 190 156
e 196 156
e 158 157
e 176 157
e 186 157
e 196 157
e 162 158
e 163 158
e 167 158
e 174 158
e 194 158
e 197 158
e 162 159
e 163 159
e 171 159
e 172 159
e 182 159
e 199 159
e 161 160
e 163 160
e 164 160
e 167 160
e 185 160
e 189 160
e 197 160
e 198 160
e 200 160
e 163 161
e 164 161
e 168 161
e 174 161
e 187 161
e 188 161
e 198 161
e 167 162
e 172 162
e 176 162
e 188 162
e 190 162
e 193 162
e 194 162
e 199 162
e 200 162
e 166 163
e 175 163
e 181 163
e 167 164
e 176 164
e 178 164
e 181 164
e 193 164
e 197 164
e 199 164
e 171 165
e 175 165
e 179 165
e 180 165
e 196 165
e 198 165
e 174 166
e 177 166
e 185 166
e 192 166
e 195 166
e 197 166
e 178 167
e 180 167
e 183 167
e 185 167
e 181 168
e 184 168
e 193 168
e 195 168
e 196 168
e 175 169
e 177 170
e 197 170
e 173 171
e 174 171
e 180 171
e 183 171
e 186 171
e 189 171
e 194 171
e 179 172
e 182 172
e 183 172
e 187 172
e 192 172
e 181 173
e 180 174
e 199 174
e 181 175
e 183 175
e 189 175
e 180 177
e 181 177
e 184 177
e 187 177
e 193 177
e 194 177
e 200 177
e 186 178
e 182 179
e 191 179
e 192 179
e 197 179
e 198 179
e 181 180
e 182 180
e 198 180
e 183 181
e 185 181
e 184 182
e 187 182
e 193 182
e 200 182
e 192 183
e 196 183
e 186 185
e 194 185
e 191 186
e 198 186
e 196 188
e 198 188
e 191 189
e 194 189
e 198 191
e 199 191
e 195 192
e 198 192
e 200 192
e 197 194
e 198 196
e 198 197
e 199 198
